c Generated map
c Size: 9 * 9, weights in range: 1 to 10, walls: True, with ratio 0.05
c dim 8 of 8
c
p sp 81 130
c graph contains 81 nodes and 130 arcs
c
a 1 10 2
a 10 1 2
a 1 2 5
a 2 1 5
a 2 11 8
a 11 2 8
a 2 3 4
a 3 2 4
a 3 12 7
a 12 3 7
a 3 4 10
a 4 3 10
a 4 13 8
a 13 4 8
a 4 5 4
a 5 4 4
a 5 14 5
a 14 5 5
a 5 6 7
a 6 5 7
a 6 15 5
a 15 6 5
a 6 7 3
a 7 6 3
a 7 16 6
a 16 7 6
a 7 8 7
a 8 7 7
a 8 17 1
a 17 8 1
a 8 9 9
a 9 8 9
a 9 18 9
a 18 9 9
a 10 19 1
a 19 10 1
a 10 11 7
a 11 10 7
a 11 20 2
a 20 11 2
a 11 12 6
a 12 11 6
a 12 21 8
a 21 12 8
a 12 13 6
a 13 12 6
a 13 22 6
a 22 13 6
a 13 14 7
a 14 13 7
a 14 23 7
a 23 14 7
a 14 15 4
a 15 14 4
a 15 24 8
a 24 15 8
a 15 16 6
a 16 15 6
a 16 25 9
a 25 16 9
a 16 17 7
a 17 16 7
a 17 26 8
a 26 17 8
a 17 18 4
a 18 17 4
a 18 27 9
a 27 18 9
a 19 28 6
a 28 19 6
a 19 20 3
a 20 19 3
a 20 29 6
a 29 20 6
a 20 21 7
a 21 20 7
a 21 30 3
a 30 21 3
a 21 22 2
a 22 21 2
a 22 31 10
a 31 22 10
a 22 23 5
a 23 22 5
a 23 24 4
a 24 23 4
a 24 33 1
a 33 24 1
a 24 25 2
a 25 24 2
a 25 34 5
a 34 25 5
a 25 26 10
a 26 25 10
a 26 35 5
a 35 26 5
a 26 27 8
a 27 26 8
a 27 36 2
a 36 27 2
a 28 29 1
a 29 28 1
a 29 38 9
a 38 29 9
a 29 30 5
a 30 29 5
a 30 39 6
a 39 30 6
a 30 31 4
a 31 30 4
a 31 40 9
a 40 31 9
a 33 42 7
a 42 33 7
a 33 34 5
a 34 33 5
a 34 43 7
a 43 34 7
a 34 35 8
a 35 34 8
a 35 44 2
a 44 35 2
a 35 36 6
a 36 35 6
a 36 45 1
a 45 36 1
a 38 47 10
a 47 38 10
a 38 39 5
a 39 38 5
a 39 48 9
a 48 39 9
a 39 40 5
a 40 39 5
a 40 49 6
a 49 40 6
a 40 41 8
a 41 40 8
a 41 50 8
a 50 41 8
a 41 42 6
a 42 41 6
a 42 51 7
a 51 42 7
a 42 43 2
a 43 42 2
a 43 52 9
a 52 43 9
a 43 44 3
a 44 43 3
a 44 53 9
a 53 44 9
a 44 45 10
a 45 44 10
a 45 54 4
a 54 45 4
a 46 55 2
a 55 46 2
a 46 47 3
a 47 46 3
a 47 56 7
a 56 47 7
a 47 48 10
a 48 47 10
a 48 57 2
a 57 48 2
a 48 49 3
a 49 48 3
a 49 58 2
a 58 49 2
a 49 50 6
a 50 49 6
a 50 51 6
a 51 50 6
a 51 60 6
a 60 51 6
a 51 52 6
a 52 51 6
a 52 61 9
a 61 52 9
a 52 53 5
a 53 52 5
a 53 62 3
a 62 53 3
a 53 54 4
a 54 53 4
a 54 63 8
a 63 54 8
a 55 56 5
a 56 55 5
a 56 65 7
a 65 56 7
a 56 57 2
a 57 56 2
a 57 66 9
a 66 57 9
a 57 58 4
a 58 57 4
a 58 67 1
a 67 58 1
a 60 69 7
a 69 60 7
a 60 61 3
a 61 60 3
a 61 70 5
a 70 61 5
a 61 62 1
a 62 61 1
a 62 71 1
a 71 62 1
a 62 63 8
a 63 62 8
a 63 72 7
a 72 63 7
a 65 74 6
a 74 65 6
a 65 66 2
a 66 65 2
a 66 75 9
a 75 66 9
a 66 67 5
a 67 66 5
a 67 76 10
a 76 67 10
a 67 68 5
a 68 67 5
a 68 77 3
a 77 68 3
a 68 69 9
a 69 68 9
a 69 78 2
a 78 69 2
a 69 70 8
a 70 69 8
a 70 79 1
a 79 70 1
a 70 71 7
a 71 70 7
a 71 80 7
a 80 71 7
a 71 72 10
a 72 71 10
a 72 81 3
a 81 72 3
a 73 74 10
a 74 73 10
a 74 75 10
a 75 74 10
a 75 76 5
a 76 75 5
a 76 77 6
a 77 76 6
a 77 78 10
a 78 77 10
a 78 79 1
a 79 78 1
a 79 80 4
a 80 79 4
a 80 81 3
a 81 80 3
